Set parameter Username
Academic license - for non-commercial use only - expires 2022-06-20
Gurobi Optimizer version 9.5.1 build v9.5.1rc2 (mac64[x86])
Thread count: 2 physical cores, 4 logical processors, using up to 4 threads
Optimize a model with 5041 rows, 4900 columns and 19530 nonzeros
Model fingerprint: 0x0ca9f289
Variable types: 0 continuous, 4900 integer (4900 binary)
Coefficient statistics:
  Matrix range     [1e+00, 1e+03]
  Objective range  [1e+00, 1e+01]
  Bounds range     [1e+00, 1e+00]
  RHS range        [1e+00, 8e+00]
Presolve removed 70 rows and 0 columns
Presolve time: 0.08s
Presolved: 4971 rows, 4900 columns, 19530 nonzeros
Variable types: 0 continuous, 4900 integer (4900 binary)
Found heuristic solution: objective 212.2145019

Root relaxation: objective 7.900927e+01, 1205 iterations, 0.07 seconds (0.06 work units)

    Nodes    |    Current Node    |     Objective Bounds      |     Work
 Expl Unexpl |  Obj  Depth IntInf | Incumbent    BestBd   Gap | It/Node Time

     0     0   79.00927    0  192  212.21450   79.00927  62.8%     -    0s
H    0     0                     109.5473617   79.00927  27.9%     -    0s
H    0     0                      96.2192479   79.00927  17.9%     -    0s
H    0     0                      84.9498925   79.00927  6.99%     -    0s
     0     0   79.66121    0  229   84.94989   79.66121  6.23%     -    0s
H    0     0                      83.5936013   79.66121  4.70%     -    1s
     0     0   79.72977    0  283   83.59360   79.72977  4.62%     -    1s
     0     0   79.72977    0  282   83.59360   79.72977  4.62%     -    2s
     0     0   79.72977    0  192   83.59360   79.72977  4.62%     -    2s
     0     0   79.72977    0  229   83.59360   79.72977  4.62%     -    2s
H    0     0                      82.5936013   79.72977  3.47%     -    2s
     0     0   79.72977    0  283   82.59360   79.72977  3.47%     -    2s
     0     0   79.73102    0  274   82.59360   79.73102  3.47%     -    2s
     0     0   79.73102    0  192   82.59360   79.73102  3.47%     -    3s
     0     0   79.73102    0  229   82.59360   79.73102  3.47%     -    3s
     0     0   79.73102    0  275   82.59360   79.73102  3.47%     -    3s
     0     0   79.74255    0  269   82.59360   79.74255  3.45%     -    3s
     0     0   79.85835    0  275   82.59360   79.85835  3.31%     -    3s
     0     0   79.98058    0  261   82.59360   79.98058  3.16%     -    3s
     0     0   80.02030    0  273   82.59360   80.02030  3.12%     -    3s
     0     0   80.04207    0  249   82.59360   80.04207  3.09%     -    3s
     0     0   80.04233    0  257   82.59360   80.04233  3.09%     -    3s
     0     0   80.04257    0  281   82.59360   80.04257  3.09%     -    3s
     0     0   80.04257    0  281   82.59360   80.04257  3.09%     -    3s
     0     2   80.04257    0  281   82.59360   80.04257  3.09%     -    4s
   203   169   81.80169   12  113   82.59360   80.37832  2.68%  69.5    5s
H  535   298                      82.1793878   80.50120  2.04%  54.2    6s
   745   402   80.58533   11  254   82.17939   80.58533  1.94%  53.1   10s
  1879   291   81.86783   25  153   82.17939   81.23262  1.15%  53.4   15s

Cutting planes:
  MIR: 23
  StrongCG: 13
  Flow cover: 3
  GUB cover: 11
  Zero half: 1

Explored 3181 nodes (163204 simplex iterations) in 17.49 seconds (13.58 work units)
Thread count was 4 (of 4 available processors)

Solution count 7: 82.1794 82.5936 83.5936 ... 212.215

Optimal solution found (tolerance 1.00e-04)
Best objective 8.217938777708e+01, best bound 8.217938777708e+01, gap 0.0000%
Set parameter TimeLimit to value 1800
Gurobi Optimizer version 9.5.1 build v9.5.1rc2 (mac64[x86])
Thread count: 2 physical cores, 4 logical processors, using up to 4 threads
Optimize a model with 14771 rows, 22120 columns and 80358 nonzeros
Model fingerprint: 0x8ce71e74
Variable types: 17220 continuous, 4900 integer (4900 binary)
Coefficient statistics:
  Matrix range     [1e+00, 1e+03]
  Objective range  [1e+00, 1e+01]
  Bounds range     [1e+00, 1e+00]
  RHS range        [1e+00, 8e+00]

MIP start from previous solve produced solution with objective 82.1794 (0.03s)
Loaded MIP start from previous solve with objective 82.1794

Presolve removed 140 rows and 246 columns
Presolve time: 0.29s
Presolved: 14631 rows, 21874 columns, 79858 nonzeros
Variable types: 16974 continuous, 4900 integer (4900 binary)

Root relaxation: objective 7.900927e+01, 1598 iterations, 0.22 seconds (0.13 work units)

    Nodes    |    Current Node    |     Objective Bounds      |     Work
 Expl Unexpl |  Obj  Depth IntInf | Incumbent    BestBd   Gap | It/Node Time

     0     0   79.00927    0  192   82.17939   79.00927  3.86%     -    0s
     0     0   79.66937    0  258   82.17939   79.66937  3.05%     -    1s
     0     0   79.66937    0  192   82.17939   79.66937  3.05%     -    2s
     0     0   79.66937    0  258   82.17939   79.66937  3.05%     -    2s
     0     0   79.73081    0  270   82.17939   79.73081  2.98%     -    2s
     0     0   79.75815    0  255   82.17939   79.75815  2.95%     -    3s
     0     0   79.88591    0  259   82.17939   79.88591  2.79%     -    3s
     0     0   79.90970    0  271   82.17939   79.90970  2.76%     -    3s
     0     0   79.91152    0  279   82.17939   79.91152  2.76%     -    3s
     0     0   79.91152    0  279   82.17939   79.91152  2.76%     -    3s
     0     0   79.91152    0  279   82.17939   79.91152  2.76%     -    4s
     0     2   79.91152    0  279   82.17939   79.91152  2.76%     -    4s
    11    14   80.27080    5  259   82.17939   80.11091  2.52%   119    5s
   562   305   81.99648   12  126   82.17939   80.52352  2.01%  61.7   10s
  1414   559   81.65573   12  165   82.17939   80.84110  1.63%  59.6   15s
  1476   567   81.39398    8  297   82.17939   80.84797  1.62%  59.5   20s
